(declare-fun bvlambda_32_ ()Bool         )
(declare-fun a165 () (Array (_ BitVec 1) (_ BitVec 3)))
(assert
(let (($e51 (_ bv6 3)))
(let (($e307 (store a165 true        $e51 )))
(let (($e333 (store $e307 bvlambda_32_ $e51 )))
(let (($e389 (select $e307 bvlambda_32_)))
(let (($e522 (select $e333 true       )))
                  (bvult $e522 $e389)
                                                                                                                                                                                                                                                                                                                                                                                                                                                                                                                                                                                                                                                                                                                                                                                                                                                                                                                                                                                                                                                                                                                                                                                                                                                                                                                                                                                                                                                                                                                                                                                                                                                                                                                                                                                                                                                                                                                                                                                                                                                                                                                                                                                                                                                                                                                                                                                                                             )                                                                                                                                    )                                                       )                         )                                                                                                                                                                                                     )                                                  )
